assets/logs/12_8x8_clingo/12_8x8_clingo.solution.log

---------------------------------
|  6| 12|  2| 31| 38| 16|  1|  0|
---------------------------------
| 56| 42|  8| 14| 55| 33| 47| 18|
---------------------------------
| 10|  4| 29| 40| 13| 36| 53|  0|
---------------------------------
| 44| 54| 24| 57| 35| 49| 20| 45|
---------------------------------
| 26| 27| 46| 11| 22| 15| 34| 51|
---------------------------------
| 52|  9|  0| 30|  1| 37| 43| 17|
---------------------------------
| 25| 28|  5| 48| 21| 32|  1| 39|
---------------------------------
|  7| 50| 23|  1|  3| 41| 19|  1|
---------------------------------

| n = 8 | k = 5 | coverage = 61, 95.3125%
 Time 300.003
 Name 12_8x8_clingo

