assets/logs/12_8x8_clingo/12_8x8_clingo.log
[[33,39,38,44,45,48,34,1
40,49,35,41,36,30,23,50
37,31,42,47,46,43,26,32
51,18,8,29,28,21,52,25
10,7,14,20,6,27,0,24
16,13,4,1,19,22,1,1
5,12,9,15,1,1,0,0
11,0,3,2,0,17,0,0]]clingo version 5.4.0
Reading from ...ets/logs/12_8x8_clingo/knights_tour.lp ...
Solving...
Answer: 1
occ(1,8,4) occ(1,7,7) occ(1,8,8) occ(1,1,7) occ(1,6,5) occ(2,1,3) occ(3,8,5) coverage(6)
Optimization: -6
Answer: 2
occ(1,8,4) occ(1,7,7) occ(1,8,8) occ(1,1,7) occ(1,6,5) occ(2,1,3) occ(3,8,5) coverage(7) occ(4,2,1) occ(6,4,2)
Optimization: -7
Answer: 3
occ(1,8,4) occ(1,7,7) occ(1,8,8) occ(1,1,7) occ(1,6,5) occ(2,1,3) occ(3,8,5) coverage(13) occ(12,1,2) occ(16,1,6) occ(20,1,4) occ(50,1,5) occ(4,2,1) occ(8,2,3) occ(14,2,4) occ(22,2,6) occ(48,2,7) occ(10,3,1) occ(18,3,5) occ(6,4,2) occ(24,4,7) occ(46,4,8) occ(7,5,4) occ(34,5,7) occ(9,6,2) occ(26,6,6) occ(38,6,8) occ(44,6,7) occ(5,7,3) occ(28,7,4) occ(32,7,8) occ(36,7,6) occ(42,7,5) occ(11,8,1) occ(30,8,6) occ(40,8,7)
Optimization: -13
Answer: 4
occ(1,8,4) occ(1,7,7) occ(1,8,8) occ(1,1,7) occ(1,6,5) occ(2,1,3) occ(3,8,5) coverage(15) occ(12,1,2) occ(16,1,6) occ(20,1,4) occ(50,1,5) occ(4,2,1) occ(8,2,3) occ(14,2,4) occ(22,2,6) occ(48,2,7) occ(10,3,1) occ(18,3,5) occ(6,4,2) occ(24,4,7) occ(46,4,8) occ(34,5,7) occ(5,6,4) occ(9,6,2) occ(26,6,6) occ(38,6,8) occ(44,6,7) occ(13,7,3) occ(28,7,4) occ(32,7,8) occ(36,7,6) occ(42,7,5) occ(7,8,3) occ(11,8,1) occ(30,8,6) occ(40,8,7)
Optimization: -15
Answer: 5
occ(1,8,4) occ(1,7,7) occ(1,8,8) occ(1,1,7) occ(1,6,5) occ(2,1,3) occ(3,8,5) coverage(17) occ(12,1,2) occ(16,1,6) occ(20,1,4) occ(50,1,5) occ(4,2,1) occ(8,2,3) occ(14,2,4) occ(22,2,6) occ(48,2,7) occ(10,3,1) occ(18,3,5) occ(6,4,2) occ(24,4,7) occ(46,4,8) occ(34,5,7) occ(5,6,4) occ(9,6,2) occ(15,6,1) occ(26,6,6) occ(38,6,8) occ(44,6,7) occ(13,7,3) occ(28,7,4) occ(32,7,8) occ(36,7,6) occ(42,7,5) occ(7,8,3) occ(11,8,1) occ(30,8,6) occ(40,8,7)
Optimization: -17
Answer: 6
occ(1,8,4) occ(1,7,7) occ(1,8,8) occ(1,1,7) occ(1,6,5) occ(2,1,3) occ(3,8,5) coverage(19) occ(12,1,2) occ(16,1,6) occ(20,1,4) occ(50,1,5) occ(4,2,1) occ(8,2,3) occ(14,2,4) occ(22,2,6) occ(48,2,7) occ(10,3,1) occ(18,3,5) occ(6,4,2) occ(24,4,7) occ(46,4,8) occ(34,5,7) occ(5,6,4) occ(9,6,2) occ(15,6,1) occ(26,6,6) occ(38,6,8) occ(44,6,7) occ(13,7,3) occ(28,7,4) occ(32,7,8) occ(36,7,6) occ(42,7,5) occ(7,8,3) occ(11,8,1) occ(17,8,2) occ(30,8,6) occ(40,8,7)
Optimization: -19
Answer: 7
occ(1,8,4) occ(1,7,7) occ(1,8,8) occ(1,1,7) occ(1,6,5) occ(2,1,3) occ(3,8,5) coverage(21) occ(12,1,2) occ(16,1,6) occ(20,1,4) occ(50,1,5) occ(4,2,1) occ(8,2,3) occ(14,2,4) occ(19,2,5) occ(22,2,6) occ(48,2,7) occ(10,3,1) occ(18,3,5) occ(6,4,2) occ(17,4,4) occ(24,4,7) occ(46,4,8) occ(15,5,2) occ(34,5,7) occ(5,6,4) occ(9,6,2) occ(26,6,6) occ(38,6,8) occ(44,6,7) occ(13,7,3) occ(28,7,4) occ(32,7,8) occ(36,7,6) occ(42,7,5) occ(7,8,3) occ(11,8,1) occ(30,8,6) occ(40,8,7)
Optimization: -21
Answer: 8
occ(1,8,4) occ(1,7,7) occ(1,8,8) occ(1,1,7) occ(1,6,5) occ(2,1,3) occ(3,8,5) coverage(23) occ(12,1,2) occ(16,1,6) occ(20,1,4) occ(50,1,5) occ(4,2,1) occ(8,2,3) occ(14,2,4) occ(21,2,2) occ(22,2,6) occ(48,2,7) occ(10,3,1) occ(18,3,5) occ(6,4,2) occ(19,4,1) occ(24,4,7) occ(46,4,8) occ(17,5,3) occ(34,5,7) occ(5,6,4) occ(9,6,2) occ(15,6,1) occ(26,6,6) occ(38,6,8) occ(44,6,7) occ(13,7,3) occ(28,7,4) occ(32,7,8) occ(36,7,6) occ(42,7,5) occ(7,8,3) occ(11,8,1) occ(30,8,6) occ(40,8,7)
Optimization: -23
Answer: 9
occ(1,8,4) occ(1,7,7) occ(1,8,8) occ(1,1,7) occ(1,6,5) occ(2,1,3) occ(3,8,5) coverage(25) occ(12,1,2) occ(16,1,6) occ(20,1,4) occ(50,1,5) occ(4,2,1) occ(8,2,3) occ(14,2,4) occ(22,2,6) occ(48,2,7) occ(10,3,1) occ(18,3,5) occ(21,3,3) occ(6,4,2) occ(19,4,1) occ(24,4,7) occ(46,4,8) occ(17,5,3) occ(23,5,2) occ(34,5,7) occ(5,6,4) occ(9,6,2) occ(15,6,1) occ(26,6,6) occ(38,6,8) occ(44,6,7) occ(13,7,3) occ(28,7,4) occ(32,7,8) occ(36,7,6) occ(42,7,5) occ(7,8,3) occ(11,8,1) occ(30,8,6) occ(40,8,7)
Optimization: -25
Answer: 10
occ(1,8,4) occ(1,7,7) occ(1,8,8) occ(1,1,7) occ(1,6,5) occ(2,1,3) occ(3,8,5) coverage(27) occ(12,1,2) occ(16,1,6) occ(20,1,4) occ(50,1,5) occ(4,2,1) occ(8,2,3) occ(14,2,4) occ(22,2,6) occ(48,2,7) occ(10,3,1) occ(18,3,5) occ(21,3,3) occ(6,4,2) occ(19,4,1) occ(24,4,7) occ(46,4,8) occ(17,5,3) occ(23,5,2) occ(34,5,7) occ(5,6,4) occ(9,6,2) occ(15,6,1) occ(26,6,6) occ(38,6,8) occ(44,6,7) occ(13,7,3) occ(25,7,1) occ(28,7,4) occ(32,7,8) occ(36,7,6) occ(42,7,5) occ(7,8,3) occ(11,8,1) occ(30,8,6) occ(40,8,7)
Optimization: -27
Answer: 11
occ(1,8,4) occ(1,7,7) occ(1,8,8) occ(1,1,7) occ(1,6,5) occ(2,1,3) occ(3,8,5) coverage(29) occ(12,1,2) occ(16,1,6) occ(20,1,4) occ(50,1,5) occ(4,2,1) occ(8,2,3) occ(14,2,4) occ(22,2,6) occ(48,2,7) occ(10,3,1) occ(18,3,5) occ(21,3,3) occ(6,4,2) occ(19,4,1) occ(24,4,7) occ(46,4,8) occ(17,5,3) occ(23,5,2) occ(34,5,7) occ(5,6,4) occ(9,6,2) occ(15,6,1) occ(26,6,6) occ(27,6,3) occ(38,6,8) occ(44,6,7) occ(13,7,3) occ(25,7,1) occ(28,7,4) occ(32,7,8) occ(36,7,6) occ(42,7,5) occ(7,8,3) occ(11,8,1) occ(30,8,6) occ(40,8,7)
Optimization: -29
Answer: 12
occ(1,8,4) occ(1,7,7) occ(1,8,8) occ(1,1,7) occ(1,6,5) occ(2,1,3) occ(3,8,5) coverage(31) occ(12,1,2) occ(16,1,6) occ(20,1,4) occ(50,1,5) occ(4,2,1) occ(8,2,3) occ(14,2,4) occ(22,2,6) occ(48,2,7) occ(10,3,1) occ(18,3,5) occ(21,3,3) occ(6,4,2) occ(19,4,1) occ(24,4,7) occ(46,4,8) occ(17,5,3) occ(23,5,2) occ(34,5,7) occ(5,6,4) occ(9,6,2) occ(15,6,1) occ(26,6,6) occ(27,6,3) occ(38,6,8) occ(44,6,7) occ(13,7,3) occ(25,7,1) occ(28,7,4) occ(32,7,8) occ(36,7,6) occ(42,7,5) occ(7,8,3) occ(11,8,1) occ(29,8,2) occ(30,8,6) occ(40,8,7)
Optimization: -31
Answer: 13
occ(1,8,4) occ(1,7,7) occ(1,8,8) occ(1,1,7) occ(1,6,5) occ(2,1,3) occ(3,8,5) coverage(33) occ(12,1,2) occ(16,1,6) occ(20,1,4) occ(50,1,5) occ(4,2,1) occ(8,2,3) occ(14,2,4) occ(22,2,6) occ(48,2,7) occ(10,3,1) occ(18,3,5) occ(21,3,3) occ(6,4,2) occ(19,4,1) occ(24,4,7) occ(46,4,8) occ(17,5,3) occ(23,5,2) occ(29,5,1) occ(34,5,7) occ(5,6,4) occ(9,6,2) occ(15,6,1) occ(26,6,6) occ(27,6,3) occ(38,6,8) occ(44,6,7) occ(13,7,3) occ(25,7,1) occ(28,7,4) occ(31,7,2) occ(32,7,8) occ(36,7,6) occ(42,7,5) occ(7,8,3) occ(11,8,1) occ(30,8,6) occ(40,8,7)
Optimization: -33
Answer: 14
occ(1,8,4) occ(1,7,7) occ(1,8,8) occ(1,1,7) occ(1,6,5) occ(2,1,3) occ(3,8,5) coverage(35) occ(12,1,2) occ(16,1,6) occ(20,1,4) occ(50,1,5) occ(4,2,1) occ(8,2,3) occ(14,2,4) occ(22,2,6) occ(27,2,5) occ(48,2,7) occ(10,3,1) occ(18,3,5) occ(21,3,3) occ(29,3,7) occ(6,4,2) occ(19,4,1) occ(24,4,7) occ(25,4,4) occ(33,4,6) occ(46,4,8) occ(17,5,3) occ(23,5,2) occ(31,5,8) occ(34,5,7) occ(5,6,4) occ(9,6,2) occ(15,6,1) occ(26,6,6) occ(38,6,8) occ(44,6,7) occ(13,7,3) occ(28,7,4) occ(32,7,8) occ(36,7,6) occ(42,7,5) occ(7,8,3) occ(11,8,1) occ(30,8,6) occ(40,8,7)
Optimization: -35
Answer: 15
occ(1,8,4) occ(1,7,7) occ(1,8,8) occ(1,1,7) occ(1,6,5) occ(2,1,3) occ(3,8,5) coverage(37) occ(6,1,1) occ(12,1,2) occ(16,1,6) occ(20,1,4) occ(50,1,5) occ(8,2,3) occ(14,2,4) occ(22,2,6) occ(23,2,5) occ(35,2,1) occ(48,2,7) occ(4,3,2) occ(10,3,1) occ(18,3,5) occ(21,3,3) occ(25,3,7) occ(19,4,1) occ(24,4,7) occ(29,4,6) occ(33,4,2) occ(46,4,8) occ(17,5,3) occ(27,5,8) occ(31,5,4) occ(34,5,7) occ(5,6,4) occ(9,6,2) occ(15,6,1) occ(26,6,6) occ(38,6,8) occ(44,6,7) occ(13,7,3) occ(28,7,4) occ(32,7,8) occ(36,7,6) occ(42,7,5) occ(7,8,3) occ(11,8,1) occ(30,8,6) occ(40,8,7)
Optimization: -37
Answer: 16
occ(1,8,4) occ(1,7,7) occ(1,8,8) occ(1,1,7) occ(1,6,5) occ(2,1,3) occ(3,8,5) coverage(39) occ(12,1,2) occ(16,1,6) occ(20,1,4) occ(50,1,5) occ(4,2,1) occ(8,2,3) occ(14,2,4) occ(22,2,6) occ(23,2,5) occ(33,2,2) occ(48,2,7) occ(10,3,1) occ(18,3,5) occ(21,3,3) occ(25,3,7) occ(31,3,4) occ(6,4,2) occ(19,4,1) occ(24,4,7) occ(29,4,6) occ(35,4,3) occ(46,4,8) occ(17,5,3) occ(27,5,8) occ(34,5,7) occ(37,5,1) occ(5,6,4) occ(9,6,2) occ(15,6,1) occ(26,6,6) occ(38,6,8) occ(44,6,7) occ(13,7,3) occ(28,7,4) occ(32,7,8) occ(36,7,6) occ(42,7,5) occ(7,8,3) occ(11,8,1) occ(30,8,6) occ(40,8,7)
Optimization: -39
Answer: 17
occ(1,8,4) occ(1,7,7) occ(1,8,8) occ(1,1,7) occ(1,6,5) occ(2,1,3) occ(3,8,5) coverage(41) occ(12,1,2) occ(16,1,6) occ(20,1,4) occ(50,1,5) occ(4,2,1) occ(8,2,3) occ(14,2,4) occ(22,2,6) occ(23,2,5) occ(33,2,2) occ(48,2,7) occ(10,3,1) occ(18,3,5) occ(21,3,3) occ(25,3,7) occ(31,3,4) occ(6,4,2) occ(19,4,1) occ(24,4,7) occ(29,4,6) occ(35,4,3) occ(46,4,8) occ(17,5,3) occ(27,5,8) occ(34,5,7) occ(37,5,1) occ(5,6,4) occ(9,6,2) occ(15,6,1) occ(26,6,6) occ(38,6,8) occ(44,6,7) occ(13,7,3) occ(28,7,4) occ(32,7,8) occ(36,7,6) occ(39,7,2) occ(42,7,5) occ(7,8,3) occ(11,8,1) occ(30,8,6) occ(40,8,7)
Optimization: -41
Answer: 18
occ(1,8,4) occ(1,7,7) occ(1,8,8) occ(1,1,7) occ(1,6,5) occ(2,1,3) occ(3,8,5) coverage(43) occ(12,1,2) occ(16,1,6) occ(20,1,4) occ(41,1,1) occ(50,1,5) occ(4,2,1) occ(8,2,3) occ(14,2,4) occ(22,2,6) occ(23,2,5) occ(33,2,2) occ(48,2,7) occ(10,3,1) occ(18,3,5) occ(21,3,3) occ(25,3,7) occ(31,3,4) occ(39,3,2) occ(6,4,2) occ(19,4,1) occ(24,4,7) occ(29,4,6) occ(35,4,3) occ(46,4,8) occ(17,5,3) occ(27,5,8) occ(34,5,7) occ(37,5,1) occ(5,6,4) occ(9,6,2) occ(15,6,1) occ(26,6,6) occ(38,6,8) occ(44,6,7) occ(13,7,3) occ(28,7,4) occ(32,7,8) occ(36,7,6) occ(42,7,5) occ(7,8,3) occ(11,8,1) occ(30,8,6) occ(40,8,7)
Optimization: -43
Answer: 19
occ(1,8,4) occ(1,7,7) occ(1,8,8) occ(1,1,7) occ(1,6,5) occ(2,1,3) occ(3,8,5) coverage(45) occ(12,1,2) occ(16,1,6) occ(20,1,4) occ(50,1,5) occ(4,2,1) occ(8,2,3) occ(14,2,4) occ(22,2,6) occ(23,2,5) occ(33,2,2) occ(48,2,7) occ(10,3,1) occ(18,3,5) occ(21,3,3) occ(25,3,7) occ(31,3,4) occ(6,4,2) occ(19,4,1) occ(24,4,7) occ(29,4,6) occ(35,4,3) occ(46,4,8) occ(17,5,3) occ(27,5,8) occ(34,5,7) occ(37,5,1) occ(43,5,2) occ(5,6,4) occ(9,6,2) occ(15,6,1) occ(26,6,6) occ(38,6,8) occ(39,6,3) occ(44,6,7) occ(13,7,3) occ(28,7,4) occ(32,7,8) occ(36,7,6) occ(41,7,1) occ(42,7,5) occ(7,8,3) occ(11,8,1) occ(30,8,6) occ(40,8,7)
Optimization: -45
Answer: 20
occ(1,8,4) occ(1,7,7) occ(1,8,8) occ(1,1,7) occ(1,6,5) occ(2,1,3) occ(3,8,5) coverage(47) occ(12,1,2) occ(16,1,6) occ(20,1,4) occ(50,1,5) occ(4,2,1) occ(8,2,3) occ(14,2,4) occ(22,2,6) occ(23,2,5) occ(33,2,2) occ(48,2,7) occ(10,3,1) occ(18,3,5) occ(21,3,3) occ(25,3,7) occ(31,3,4) occ(39,3,6) occ(6,4,2) occ(19,4,1) occ(24,4,7) occ(29,4,6) occ(35,4,3) occ(41,4,4) occ(46,4,8) occ(17,5,3) occ(27,5,8) occ(34,5,7) occ(37,5,5) occ(43,5,2) occ(5,6,4) occ(9,6,2) occ(15,6,1) occ(26,6,6) occ(38,6,8) occ(44,6,7) occ(13,7,3) occ(28,7,4) occ(32,7,8) occ(36,7,6) occ(42,7,5) occ(45,7,1) occ(7,8,3) occ(11,8,1) occ(30,8,6) occ(40,8,7)
Optimization: -47
Answer: 21
occ(1,8,4) occ(1,7,7) occ(1,8,8) occ(1,1,7) occ(1,6,5) occ(2,1,3) occ(3,8,5) coverage(49) occ(12,1,2) occ(16,1,6) occ(20,1,4) occ(50,1,5) occ(4,2,1) occ(8,2,3) occ(14,2,4) occ(22,2,6) occ(23,2,5) occ(33,2,2) occ(48,2,7) occ(10,3,1) occ(18,3,5) occ(21,3,3) occ(25,3,7) occ(31,3,4) occ(47,3,2) occ(6,4,2) occ(19,4,1) occ(24,4,7) occ(29,4,6) occ(35,4,3) occ(45,4,4) occ(46,4,8) occ(17,5,3) occ(27,5,8) occ(34,5,7) occ(37,5,5) occ(43,5,2) occ(5,6,4) occ(9,6,2) occ(15,6,1) occ(26,6,6) occ(38,6,8) occ(39,6,3) occ(44,6,7) occ(13,7,3) occ(28,7,4) occ(32,7,8) occ(36,7,6) occ(41,7,1) occ(42,7,5) occ(7,8,3) occ(11,8,1) occ(30,8,6) occ(40,8,7)
Optimization: -49
Answer: 22
occ(1,8,4) occ(1,7,7) occ(1,8,8) occ(1,1,7) occ(1,6,5) occ(2,1,3) occ(3,8,5) coverage(51) occ(12,1,2) occ(16,1,6) occ(20,1,4) occ(49,1,1) occ(50,1,5) occ(4,2,1) occ(8,2,3) occ(14,2,4) occ(22,2,6) occ(23,2,5) occ(33,2,2) occ(48,2,7) occ(10,3,1) occ(18,3,5) occ(21,3,3) occ(25,3,7) occ(31,3,4) occ(47,3,2) occ(6,4,2) occ(19,4,1) occ(24,4,7) occ(29,4,6) occ(35,4,3) occ(45,4,4) occ(46,4,8) occ(17,5,3) occ(27,5,8) occ(34,5,7) occ(37,5,5) occ(43,5,2) occ(5,6,4) occ(9,6,2) occ(15,6,1) occ(26,6,6) occ(38,6,8) occ(39,6,3) occ(44,6,7) occ(13,7,3) occ(28,7,4) occ(32,7,8) occ(36,7,6) occ(41,7,1) occ(42,7,5) occ(7,8,3) occ(11,8,1) occ(30,8,6) occ(40,8,7)
Optimization: -51
Answer: 23
occ(1,8,4) occ(1,7,7) occ(1,8,8) occ(1,1,7) occ(1,6,5) occ(2,1,3) occ(3,8,5) coverage(52) occ(12,1,2) occ(16,1,6) occ(20,1,4) occ(50,1,5) occ(4,2,1) occ(8,2,3) occ(14,2,4) occ(22,2,6) occ(23,2,5) occ(33,2,2) occ(48,2,7) occ(10,3,1) occ(18,3,5) occ(21,3,3) occ(25,3,7) occ(31,3,4) occ(47,3,2) occ(6,4,2) occ(19,4,1) occ(24,4,7) occ(29,4,6) occ(35,4,3) occ(45,4,4) occ(46,4,8) occ(17,5,3) occ(27,5,8) occ(34,5,7) occ(37,5,5) occ(43,5,2) occ(49,5,1) occ(5,6,4) occ(9,6,2) occ(15,6,1) occ(26,6,6) occ(38,6,8) occ(39,6,3) occ(44,6,7) occ(13,7,3) occ(28,7,4) occ(32,7,8) occ(36,7,6) occ(41,7,1) occ(42,7,5) occ(51,7,2) occ(7,8,3) occ(11,8,1) occ(30,8,6) occ(40,8,7)
Optimization: -52
Answer: 24
occ(1,8,4) occ(1,7,7) occ(1,8,8) occ(1,1,7) occ(1,6,5) occ(2,1,3) occ(3,8,5) coverage(53) occ(6,1,1) occ(12,1,2) occ(15,1,4) occ(16,1,6) occ(37,1,5) occ(56,1,8) occ(8,2,3) occ(14,2,4) occ(17,2,2) occ(18,2,8) occ(40,2,7) occ(44,2,5) occ(54,2,6) occ(4,3,2) occ(10,3,1) occ(13,3,5) occ(35,3,6) occ(39,3,4) occ(46,3,3) occ(52,3,8) occ(58,3,7) occ(11,4,3) occ(19,4,1) occ(20,4,7) occ(33,4,4) occ(38,4,8) occ(41,4,2) occ(42,4,6) occ(48,4,5) occ(21,5,3) occ(28,5,4) occ(31,5,2) occ(34,5,5) occ(50,5,7) occ(9,6,2) occ(22,6,8) occ(25,6,4) occ(26,6,6) occ(32,6,3) occ(36,6,7) occ(43,6,1) occ(5,7,3) occ(23,7,2) occ(29,7,1) occ(30,7,5) occ(47,7,4) occ(51,7,8) occ(7,8,1) occ(24,8,7) occ(27,8,3) occ(45,8,2) occ(49,8,6)
Optimization: -53
Answer: 25
occ(1,8,4) occ(1,7,7) occ(1,8,8) occ(1,1,7) occ(1,6,5) occ(2,1,3) occ(3,8,5) coverage(54) occ(6,1,1) occ(12,1,2) occ(16,1,6) occ(27,1,4) occ(28,1,8) occ(45,1,5) occ(8,2,3) occ(14,2,4) occ(18,2,8) occ(29,2,2) occ(30,2,6) occ(39,2,1) occ(47,2,7) occ(4,3,2) occ(10,3,1) occ(25,3,5) occ(26,3,7) occ(32,3,8) occ(36,3,6) occ(37,3,3) occ(43,3,4) occ(11,4,3) occ(20,4,7) occ(21,4,8) occ(31,4,1) occ(35,4,5) occ(38,4,4) occ(41,4,2) occ(49,4,6) occ(9,5,1) occ(13,5,5) occ(23,5,6) occ(24,5,8) occ(33,5,3) occ(34,5,7) occ(40,5,2) occ(51,5,4) occ(5,6,4) occ(19,6,7) occ(22,6,6) occ(44,6,3) occ(48,6,1) occ(53,6,2) occ(61,6,8) occ(7,7,2) occ(15,7,4) occ(42,7,1) occ(50,7,3) occ(57,7,5) occ(63,7,6) occ(17,8,6) occ(46,8,2) occ(52,8,1) occ(55,8,3) occ(59,8,7)
Optimization: -54
Answer: 26
occ(1,8,4) occ(1,7,7) occ(1,8,8) occ(1,1,7) occ(1,6,5) occ(2,1,3) occ(3,8,5) coverage(58) occ(6,1,1) occ(12,1,2) occ(16,1,6) occ(31,1,4) occ(38,1,5) occ(8,2,3) occ(14,2,4) occ(18,2,8) occ(33,2,6) occ(42,2,2) occ(47,2,7) occ(55,2,5) occ(56,2,1) occ(4,3,2) occ(10,3,1) occ(13,3,5) occ(29,3,3) occ(36,3,6) occ(40,3,4) occ(53,3,7) occ(20,4,7) occ(24,4,3) occ(35,4,5) occ(44,4,1) occ(45,4,8) occ(49,4,6) occ(54,4,2) occ(57,4,4) occ(11,5,4) occ(15,5,6) occ(22,5,5) occ(26,5,1) occ(27,5,2) occ(34,5,7) occ(46,5,3) occ(51,5,8) occ(9,6,2) occ(17,6,8) occ(30,6,4) occ(37,6,6) occ(43,6,7) occ(52,6,1) occ(5,7,3) occ(21,7,5) occ(25,7,1) occ(28,7,2) occ(32,7,6) occ(39,7,8) occ(48,7,4) occ(7,8,1) occ(19,8,7) occ(23,8,3) occ(41,8,6) occ(50,8,2)
Optimization: -58
*** Info : (clingo): INTERRUPTED by signal!
SATISFIABLE

TIME LIMIT   : 1
Models       : 26+
  Optimum    : unknown
Optimization : -58
Calls        : 1
Time         : 300.000s (Solving: 299.69s 1st Model: 0.00s Unsat: 0.00s)
CPU Time     : 300.003s
